[2026-03-24T14:27:38.248Z] Pipeline "set_vm-3-t1_vm-3-t1_s012_g001" → 2026_03_24_14_27_38_set_vm-3-t1_vm-3-t1_s012_g001_max.sol
Set parameter Username
Set parameter LicenseID to value 2796068
Set parameter LogFile to value "gurobi.log"
Using license file /opt/gurobi/gurobi.lic
Academic license - for non-commercial use only - expires 2027-03-23

Gurobi Optimizer version 13.0.1 build v13.0.1rc0 (linux64 - "Ubuntu 24.04.4 LTS")
Copyright (c) 2026, Gurobi Optimization, LLC

Warning: Duplicate section found (read 'binary') - Is a variable name equal to an LP file format keyword?
Warning: Duplicate section found (read 'binary') - Is a variable name equal to an LP file format keyword?
Warning: Duplicate section found (read 'binary') - Is a variable name equal to an LP file format keyword?
Warning: Duplicate section found (read 'binary') - Is a variable name equal to an LP file format keyword?
Warning: Duplicate section found (read 'binary') - Is a variable name equal to an LP file format keyword?
Warning: Duplicate section found (read 'binary') - Is a variable name equal to an LP file format keyword?
Warning: Duplicate section found (read 'binary') - Is a variable name equal to an LP file format keyword?
Warning: Duplicate section found (read 'binary') - Is a variable name equal to an LP file format keyword?
Warning: Duplicate section found (read 'binary') - Is a variable name equal to an LP file format keyword?
Warning: Duplicate section found (read 'binary') - Is a variable name equal to an LP file format keyword?
Warning: Further warnings of this type will be omitted.
Read LP format model from file /root/bgw/data/uploads/2026_03_24_14_27_38_set_vm-3-t1_vm-3-t1_s012_g001_max.lp
Reading time = 0.00 seconds
: 3517 rows, 335 columns, 10604 nonzeros

Using Gurobi shared library /opt/gurobi1301/linux64/lib/libgurobi.so.13.0.1

CPU model: AMD EPYC-Genoa Processor, instruction set [SSE2|AVX|AVX2|AVX512]
Thread count: 16 physical cores, 16 logical processors, using up to 16 threads

Optimize a model with 3517 rows, 335 columns and 10604 nonzeros (Max)
Model fingerprint: 0xf68a0698
Model has 19 linear objective coefficients
Variable types: 41 continuous, 294 integer (294 binary)
Coefficient statistics:
  Matrix range     [1e+00, 2e+01]
  Objective range  [1e+00, 1e+00]
  Bounds range     [1e+00, 1e+00]
  RHS range        [1e+00, 2e+01]

Found heuristic solution: objective 19.0000000
Presolve removed 390 rows and 76 columns
Presolve time: 0.01s
Presolved: 3127 rows, 259 columns, 9552 nonzeros
Variable types: 0 continuous, 259 integer (250 binary)
Found heuristic solution: objective 34.0000000

Root relaxation: objective 8.800000e+01, 235 iterations, 0.01 seconds (0.01 work units)

    Nodes    |    Current Node    |     Objective Bounds      |     Work
 Expl Unexpl |  Obj  Depth IntInf | Incumbent    BestBd   Gap | It/Node Time

     0     0   88.00000    0   45   34.00000   88.00000   159%     -    0s
H    0     0                      39.0000000   88.00000   126%     -    0s
H    0     0                      45.0000000   88.00000  95.6%     -    0s
H    0     0                      47.0000000   88.00000  87.2%     -    0s
     0     0   88.00000    0   46   47.00000   88.00000  87.2%     -    0s
     0     0   88.00000    0   46   47.00000   88.00000  87.2%     -    0s
     0     0   88.00000    0   47   47.00000   88.00000  87.2%     -    0s
     0     0   88.00000    0   38   47.00000   88.00000  87.2%     -    0s
     0     0   88.00000    0   42   47.00000   88.00000  87.2%     -    0s
     0     0   88.00000    0   39   47.00000   88.00000  87.2%     -    0s
     0     0   88.00000    0   41   47.00000   88.00000  87.2%     -    0s
     0     0   88.00000    0   37   47.00000   88.00000  87.2%     -    0s
     0     0   88.00000    0   38   47.00000   88.00000  87.2%     -    0s
     0     0   88.00000    0   38   47.00000   88.00000  87.2%     -    0s
H    0     0                      48.0000000   88.00000  83.3%     -    0s
H    0     0                      50.0000000   88.00000  76.0%     -    0s
H    0     0                      53.0000000   88.00000  66.0%     -    0s
     0     0   88.00000    0   38   53.00000   88.00000  66.0%     -    0s
     0     0   88.00000    0   37   53.00000   88.00000  66.0%     -    0s
     0     0   88.00000    0   37   53.00000   88.00000  66.0%     -    0s
     0     0   88.00000    0   36   53.00000   88.00000  66.0%     -    0s
     0     0   88.00000    0   37   53.00000   88.00000  66.0%     -    0s
     0     0   88.00000    0   37   53.00000   88.00000  66.0%     -    0s
     0     0   88.00000    0   37   53.00000   88.00000  66.0%     -    0s
     0     0   88.00000    0   37   53.00000   88.00000  66.0%     -    0s
     0     2   88.00000    0   37   53.00000   88.00000  66.0%     -    0s
 12974  1293 infeasible   18        53.00000   64.50000  21.7%   106    5s

Cutting planes:
  Cover: 100
  StrongCG: 2
  Inf proof: 156
  Zero half: 3

Explored 17808 nodes (1990688 simplex iterations) in 6.81 seconds (14.90 work units)
Thread count was 16 (of 16 available processors)

Solution count 8: 53 50 48 ... 19

Optimal solution found (tolerance 1.00e-04)
Best objective 5.300000000000e+01, best bound 5.300000000000e+01, gap 0.0000%

Wrote result file '/root/bgw/data/results/2026_03_24_14_27_38_set_vm-3-t1_vm-3-t1_s012_g001_max.sol'

